p wcnf 187 374 375 
1 -53 -63 0 
1 -96 77 0 
1 186 115 0 
1 20 114 0 
1 45 105 0 
1 -140 -139 0 
1 16 119 0 
1 24 32 0 
1 -92 98 0 
1 12 86 0 
1 79 145 0 
1 -19 -156 0 
1 -111 54 0 
1 -160 29 0 
1 112 24 0 
1 31 23 0 
1 -101 -168 0 
1 -23 149 0 
1 126 58 0 
1 31 83 0 
1 35 105 0 
1 90 72 0 
1 -99 170 0 
1 167 -156 0 
1 183 67 0 
1 83 -44 0 
1 46 -103 0 
1 45 83 0 
1 -81 -144 0 
1 145 185 0 
1 -116 -10 0 
1 177 68 0 
1 -56 71 0 
1 115 -13 0 
1 -131 75 0 
1 91 184 0 
1 52 -146 0 
1 20 -132 0 
1 -172 -108 0 
1 -176 -93 0 
1 -122 138 0 
1 -43 -87 0 
1 -44 -23 0 
1 -81 -115 0 
1 99 168 0 
1 -39 -160 0 
1 141 104 0 
1 180 -135 0 
1 81 -13 0 
1 83 44 0 
1 -163 116 0 
1 -174 63 0 
1 -135 -148 0 
1 -109 159 0 
1 130 -114 0 
1 -39 -54 0 
1 12 144 0 
1 -86 -141 0 
1 -102 187 0 
1 97 -75 0 
1 -117 10 0 
1 -55 -177 0 
1 -164 1 0 
1 77 -183 0 
1 169 -93 0 
1 -6 -2 0 
1 70 -145 0 
1 -47 -167 0 
1 179 -112 0 
1 93 -103 0 
1 -163 -164 0 
1 58 -3 0 
1 73 89 0 
1 97 -182 0 
1 172 25 0 
1 141 -12 0 
1 49 125 0 
1 -103 41 0 
1 -167 157 0 
1 -130 -34 0 
1 12 -37 0 
1 -127 -151 0 
1 66 -168 0 
1 94 -106 0 
1 -185 84 0 
1 179 -33 0 
1 57 -66 0 
1 -102 124 0 
1 112 -71 0 
1 100 152 0 
1 159 -165 0 
1 102 25 0 
1 -28 128 0 
1 176 -156 0 
1 -46 -110 0 
1 -121 -141 0 
1 -23 -12 0 
1 58 -22 0 
1 -129 -94 0 
1 114 -127 0 
1 -27 164 0 
1 -170 -65 0 
1 -110 167 0 
1 109 -21 0 
1 -172 65 0 
1 -42 37 0 
1 -12 -168 0 
1 41 -166 0 
1 19 41 0 
1 -176 123 0 
1 49 124 0 
1 -165 33 0 
1 148 -95 0 
1 54 -117 0 
1 -110 -28 0 
1 7 -27 0 
1 146 181 0 
1 -112 187 0 
1 1 150 0 
1 150 95 0 
1 -68 -30 0 
1 128 51 0 
1 113 126 0 
1 64 -111 0 
1 -85 -33 0 
1 -41 172 0 
1 170 133 0 
1 40 -111 0 
1 63 170 0 
1 25 18 0 
1 66 53 0 
1 60 57 0 
1 142 32 0 
1 -25 119 0 
1 -102 5 0 
1 -166 -79 0 
1 142 165 0 
1 179 -70 0 
1 95 -133 0 
1 182 -139 0 
1 -32 -180 0 
1 -182 -140 0 
1 90 45 0 
1 -95 -34 0 
1 70 -100 0 
1 58 130 0 
1 -66 130 0 
1 -168 -11 0 
1 -60 -121 0 
1 -75 95 0 
1 -69 7 0 
1 28 19 0 
1 118 -115 0 
1 -103 -1 0 
1 -156 93 0 
1 -81 61 0 
1 -101 -71 0 
1 92 42 0 
1 161 -16 0 
1 -152 -9 0 
1 108 146 0 
1 54 113 0 
1 102 104 0 
1 -164 128 0 
1 -102 -85 0 
1 -176 -179 0 
1 25 -97 0 
1 -167 -79 0 
1 126 -76 0 
1 108 54 0 
1 -30 -59 0 
1 -116 182 0 
1 161 -134 0 
1 187 73 0 
1 -32 179 0 
1 -39 29 0 
1 106 -92 0 
1 15 -60 0 
1 -85 -152 0 
1 -16 121 0 
1 -25 57 0 
1 -64 -55 0 
1 -163 -169 0 
1 -100 -92 0 
1 -59 -148 0 
1 30 -174 0 
1 -118 100 0 
1 162 -71 0 
1 -172 115 0 
1 -20 -74 0 
1 41 -142 0 
1 -73 -157 0 
1 -63 153 0 
1 145 -132 0 
1 -171 -83 0 
1 -68 -4 0 
1 -170 -30 0 
1 167 -135 0 
1 -149 -14 0 
1 -81 28 0 
1 -17 -95 0 
1 24 25 0 
1 120 62 0 
1 86 -12 0 
1 -13 65 0 
1 172 34 0 
1 40 177 0 
1 92 136 0 
1 117 108 0 
1 3 -147 0 
1 15 -67 0 
1 159 151 0 
1 -64 -154 0 
1 -179 136 0 
1 -46 53 0 
1 90 56 0 
1 174 -145 0 
1 164 48 0 
1 35 106 0 
1 152 186 0 
1 -169 -63 0 
1 54 49 0 
1 -173 92 0 
1 -139 -84 0 
1 -117 152 0 
1 25 -98 0 
1 133 -100 0 
1 179 94 0 
1 -88 80 0 
1 153 -154 0 
1 4 -158 0 
1 -82 8 0 
1 -128 -137 0 
1 -179 -99 0 
1 4 -173 0 
1 159 152 0 
1 -131 -95 0 
1 -41 56 0 
1 -118 -122 0 
1 -12 -18 0 
1 68 104 0 
1 -77 117 0 
1 106 143 0 
1 -174 124 0 
1 -22 43 0 
1 -73 -95 0 
1 130 -152 0 
1 65 -80 0 
1 21 -37 0 
1 48 -166 0 
1 -127 -149 0 
1 -179 -167 0 
1 -179 175 0 
1 -141 -65 0 
1 11 122 0 
1 -74 -135 0 
1 39 -86 0 
1 171 -166 0 
1 61 144 0 
1 -28 3 0 
1 172 -123 0 
1 176 -80 0 
1 63 -129 0 
1 154 35 0 
1 -64 -121 0 
1 34 139 0 
1 -36 -116 0 
1 42 -152 0 
1 171 -114 0 
1 -93 87 0 
1 -26 171 0 
1 64 -170 0 
1 58 -23 0 
1 -100 -102 0 
1 -125 -4 0 
1 54 -73 0 
1 23 126 0 
1 6 141 0 
1 -185 -176 0 
1 -6 173 0 
1 -147 105 0 
1 -182 68 0 
1 -16 -21 0 
1 -2 93 0 
1 -72 81 0 
1 -37 124 0 
1 156 -62 0 
1 186 -66 0 
1 -58 163 0 
1 -2 50 0 
1 54 -76 0 
1 -70 -158 0 
1 134 28 0 
1 183 160 0 
1 -139 -71 0 
1 -177 -55 0 
1 54 -10 0 
1 175 80 0 
1 -83 -70 0 
1 133 51 0 
1 172 -41 0 
1 101 63 0 
1 -80 -36 0 
1 105 168 0 
1 179 -49 0 
1 -47 116 0 
1 -139 118 0 
1 -13 -155 0 
1 131 -123 0 
1 -46 -150 0 
1 -114 140 0 
1 -16 130 0 
1 -54 -104 0 
1 -180 187 0 
1 184 -128 0 
1 102 -155 0 
1 73 88 0 
1 -62 -33 0 
1 25 17 0 
1 24 -7 0 
1 93 -143 0 
1 131 -36 0 
1 168 49 0 
1 -79 -9 0 
1 -184 169 0 
1 143 161 0 
1 180 93 0 
1 -93 -143 0 
1 115 145 0 
1 148 -166 0 
1 -39 27 0 
1 125 -40 0 
1 2 -183 0 
1 9 127 0 
1 -29 137 0 
1 -128 -125 0 
1 -23 37 0 
1 80 121 0 
1 -176 -187 0 
1 125 35 0 
1 -94 133 0 
1 121 -92 0 
1 -60 168 0 
1 13 15 0 
1 -122 168 0 
1 43 63 0 
1 117 176 0 
1 -166 146 0 
1 183 -30 0 
1 40 -148 0 
1 -45 70 0 
1 -47 -170 0 
1 -46 2 0 
1 160 -166 0 
1 179 146 0 
1 -160 -67 0 
1 116 129 0 
1 38 71 0 
1 38 185 0 
1 54 184 0 
1 -43 -174 0 
1 -23 -77 0 
1 -117 -36 0 
1 166 -165 0 
1 28 25 0 
1 137 34 0 
1 -96 -99 0 
1 -9 56 0 
1 34 108 0 
1 -98 17 0 
1 142 18 0 
1 -179 -121 0 
1 38 -184 0 
1 -187 -178 0 
